p edge 100 990
e 1 3
e 1 7
e 1 17
e 1 23
e 1 32
e 1 33
e 1 37
e 1 41
e 1 43
e 1 47
e 1 56
e 1 59
e 1 67
e 1 74
e 1 77
e 1 84
e 1 85
e 1 97
e 2 3
e 2 4
e 2 5
e 2 6
e 2 8
e 2 10
e 2 14
e 2 15
e 2 19
e 2 24
e 2 33
e 2 39
e 2 43
e 2 44
e 2 45
e 2 54
e 2 56
e 2 57
e 2 60
e 2 70
e 2 73
e 2 74
e 2 76
e 2 79
e 2 83
e 2 84
e 2 85
e 2 87
e 2 90
e 2 96
e 2 98
e 2 99
e 2 100
e 3 8
e 3 15
e 3 16
e 3 22
e 3 25
e 3 29
e 3 30
e 3 33
e 3 41
e 3 45
e 3 46
e 3 57
e 3 58
e 3 59
e 3 62
e 3 66
e 3 73
e 3 100
e 4 9
e 4 23
e 4 33
e 4 44
e 4 49
e 4 50
e 4 61
e 4 68
e 4 69
e 4 70
e 4 80
e 4 90
e 4 98
e 5 6
e 5 10
e 5 11
e 5 14
e 5 21
e 5 23
e 5 34
e 5 39
e 5 40
e 5 42
e 5 53
e 5 64
e 5 69
e 5 75
e 5 81
e 5 83
e 5 84
e 5 95
e 5 97
e 6 11
e 6 16
e 6 18
e 6 26
e 6 30
e 6 31
e 6 35
e 6 39
e 6 44
e 6 50
e 6 52
e 6 59
e 6 64
e 6 69
e 6 75
e 6 84
e 6 86
e 6 94
e 6 95
e 7 9
e 7 14
e 7 15
e 7 20
e 7 22
e 7 23
e 7 25
e 7 27
e 7 32
e 7 33
e 7 41
e 7 42
e 7 44
e 7 49
e 7 60
e 7 69
e 7 70
e 7 74
e 7 76
e 7 79
e 7 80
e 7 90
e 7 93
e 7 96
e 7 99
e 8 13
e 8 23
e 8 24
e 8 25
e 8 39
e 8 49
e 8 52
e 8 53
e 8 54
e 8 78
e 8 83
e 8 88
e 8 92
e 8 97
e 8 100
e 9 13
e 9 26
e 9 27
e 9 28
e 9 40
e 9 41
e 9 47
e 9 57
e 9 64
e 9 66
e 9 70
e 9 78
e 9 84
e 9 85
e 9 88
e 9 89
e 9 91
e 9 97
e 9 98
e 9 99
e 10 12
e 10 13
e 10 25
e 10 30
e 10 33
e 10 37
e 10 44
e 10 46
e 10 50
e 10 64
e 10 72
e 10 75
e 10 96
e 10 99
e 10 100
e 11 20
e 11 26
e 11 28
e 11 40
e 11 44
e 11 45
e 11 46
e 11 50
e 11 58
e 11 61
e 11 66
e 11 67
e 11 72
e 11 80
e 11 84
e 11 86
e 11 93
e 11 95
e 12 18
e 12 19
e 12 21
e 12 28
e 12 37
e 12 41
e 12 45
e 12 62
e 12 65
e 12 67
e 12 72
e 12 74
e 12 77
e 12 78
e 12 79
e 12 94
e 13 17
e 13 21
e 13 33
e 13 34
e 13 35
e 13 41
e 13 48
e 13 49
e 13 58
e 13 59
e 13 62
e 13 64
e 13 65
e 13 68
e 13 70
e 13 76
e 13 81
e 13 85
e 13 92
e 13 94
e 13 99
e 14 18
e 14 34
e 14 39
e 14 42
e 14 47
e 14 52
e 14 53
e 14 64
e 14 67
e 14 68
e 14 78
e 14 83
e 14 87
e 14 88
e 14 90
e 14 100
e 15 19
e 15 22
e 15 27
e 15 32
e 15 36
e 15 41
e 15 46
e 15 56
e 15 57
e 15 59
e 15 64
e 15 67
e 15 72
e 15 73
e 15 74
e 15 84
e 15 92
e 15 97
e 15 98
e 16 20
e 16 26
e 16 34
e 16 36
e 16 46
e 16 47
e 16 52
e 16 54
e 16 62
e 16 63
e 16 65
e 16 73
e 16 77
e 16 82
e 16 88
e 16 91
e 16 95
e 17 23
e 17 34
e 17 35
e 17 43
e 17 48
e 17 58
e 17 60
e 17 62
e 17 80
e 17 82
e 18 19
e 18 24
e 18 29
e 18 33
e 18 36
e 18 39
e 18 51
e 18 52
e 18 55
e 18 57
e 18 64
e 18 67
e 18 69
e 18 72
e 18 75
e 18 94
e 19 20
e 19 23
e 19 25
e 19 27
e 19 29
e 19 30
e 19 40
e 19 46
e 19 54
e 19 57
e 19 63
e 19 75
e 19 77
e 19 81
e 19 86
e 19 87
e 19 90
e 19 97
e 20 24
e 20 25
e 20 32
e 20 42
e 20 44
e 20 45
e 20 53
e 20 55
e 20 57
e 20 65
e 20 71
e 20 78
e 20 80
e 20 95
e 20 97
e 20 100
e 21 28
e 21 32
e 21 36
e 21 40
e 21 50
e 21 53
e 21 54
e 21 61
e 21 64
e 21 67
e 21 75
e 21 79
e 21 81
e 21 84
e 21 85
e 21 86
e 22 27
e 22 29
e 22 31
e 22 34
e 22 36
e 22 41
e 22 51
e 22 54
e 22 68
e 22 76
e 22 77
e 22 82
e 22 85
e 22 86
e 22 88
e 22 92
e 22 94
e 23 24
e 23 31
e 23 41
e 23 44
e 23 46
e 23 47
e 23 51
e 23 54
e 23 59
e 23 63
e 23 64
e 23 68
e 23 75
e 23 79
e 23 80
e 23 82
e 23 85
e 23 88
e 23 91
e 23 93
e 24 26
e 24 32
e 24 44
e 24 48
e 24 57
e 24 59
e 24 64
e 24 69
e 24 70
e 24 78
e 24 84
e 24 87
e 24 96
e 24 98
e 25 29
e 25 39
e 25 42
e 25 43
e 25 54
e 25 58
e 25 64
e 25 71
e 25 73
e 25 74
e 25 79
e 25 82
e 25 89
e 25 91
e 25 93
e 26 38
e 26 40
e 26 41
e 26 48
e 26 61
e 26 69
e 26 75
e 26 76
e 26 82
e 26 88
e 26 91
e 26 100
e 27 35
e 27 39
e 27 46
e 27 51
e 27 53
e 27 55
e 27 60
e 27 63
e 27 65
e 27 68
e 27 81
e 27 83
e 27 88
e 27 92
e 27 97
e 28 31
e 28 32
e 28 34
e 28 41
e 28 44
e 28 49
e 28 56
e 28 59
e 28 63
e 28 64
e 28 65
e 28 67
e 28 69
e 28 74
e 28 75
e 28 77
e 28 78
e 28 82
e 28 89
e 28 90
e 28 92
e 28 93
e 28 95
e 29 30
e 29 36
e 29 39
e 29 46
e 29 81
e 29 88
e 29 95
e 29 96
e 30 32
e 30 34
e 30 46
e 30 47
e 30 48
e 30 49
e 30 50
e 30 55
e 30 58
e 30 64
e 30 77
e 30 91
e 30 94
e 31 37
e 31 53
e 31 55
e 31 62
e 31 67
e 31 69
e 31 73
e 31 77
e 31 78
e 31 85
e 31 88
e 31 91
e 32 34
e 32 36
e 32 38
e 32 42
e 32 47
e 32 56
e 32 66
e 32 69
e 32 79
e 32 85
e 32 89
e 32 91
e 32 93
e 33 34
e 33 38
e 33 49
e 33 56
e 33 58
e 33 61
e 33 67
e 33 70
e 33 73
e 33 74
e 33 77
e 33 81
e 33 93
e 33 95
e 34 40
e 34 50
e 34 53
e 34 54
e 34 66
e 34 69
e 34 84
e 34 88
e 34 89
e 34 92
e 35 37
e 35 42
e 35 43
e 35 45
e 35 51
e 35 61
e 35 62
e 35 68
e 35 72
e 35 81
e 35 86
e 36 44
e 36 46
e 36 59
e 36 63
e 36 68
e 36 73
e 36 74
e 36 75
e 36 76
e 36 78
e 36 80
e 36 85
e 36 86
e 36 95
e 36 96
e 37 38
e 37 57
e 37 60
e 37 62
e 37 63
e 37 65
e 37 68
e 37 74
e 37 84
e 37 85
e 37 90
e 37 93
e 37 95
e 38 41
e 38 43
e 38 55
e 38 57
e 38 58
e 38 66
e 38 69
e 38 71
e 38 72
e 38 77
e 38 92
e 38 95
e 39 42
e 39 45
e 39 47
e 39 49
e 39 58
e 39 62
e 39 63
e 39 70
e 39 71
e 39 91
e 39 100
e 40 58
e 40 68
e 40 74
e 40 75
e 40 83
e 40 86
e 40 92
e 40 96
e 40 98
e 40 100
e 41 42
e 41 43
e 41 44
e 41 45
e 41 46
e 41 55
e 41 61
e 41 62
e 41 64
e 41 71
e 41 81
e 41 84
e 41 86
e 41 87
e 41 95
e 41 98
e 41 100
e 42 45
e 42 56
e 42 59
e 42 64
e 42 71
e 42 74
e 42 75
e 42 84
e 42 91
e 42 94
e 43 44
e 43 46
e 43 50
e 43 51
e 43 65
e 43 68
e 43 69
e 43 70
e 43 84
e 43 90
e 43 91
e 43 92
e 44 58
e 44 64
e 44 65
e 44 67
e 44 68
e 44 70
e 44 80
e 44 84
e 44 90
e 44 91
e 44 94
e 44 96
e 44 100
e 45 48
e 45 52
e 45 55
e 45 60
e 45 64
e 45 67
e 45 75
e 45 80
e 45 88
e 45 90
e 45 97
e 45 100
e 46 49
e 46 59
e 46 63
e 46 64
e 46 73
e 46 75
e 46 79
e 46 82
e 47 50
e 47 51
e 47 62
e 47 65
e 47 67
e 47 79
e 47 99
e 48 49
e 48 55
e 48 56
e 48 57
e 48 63
e 48 64
e 48 66
e 48 67
e 48 74
e 48 77
e 49 56
e 49 58
e 49 59
e 49 61
e 49 62
e 49 69
e 49 71
e 49 76
e 49 77
e 49 82
e 49 84
e 49 86
e 49 98
e 50 55
e 50 58
e 50 59
e 50 70
e 50 72
e 50 76
e 50 80
e 50 82
e 50 87
e 50 88
e 50 94
e 50 97
e 51 62
e 51 66
e 51 69
e 51 75
e 51 77
e 51 78
e 51 85
e 51 88
e 51 91
e 51 94
e 51 95
e 51 99
e 52 63
e 52 66
e 52 69
e 52 71
e 52 76
e 52 77
e 52 78
e 52 79
e 52 85
e 52 86
e 52 89
e 53 58
e 53 66
e 53 71
e 53 73
e 53 90
e 53 91
e 53 93
e 53 100
e 54 58
e 54 60
e 54 67
e 54 77
e 54 80
e 54 85
e 54 86
e 54 87
e 54 97
e 55 60
e 55 64
e 55 68
e 55 74
e 55 78
e 55 79
e 55 84
e 55 86
e 55 90
e 55 98
e 56 60
e 56 62
e 56 70
e 56 71
e 56 72
e 56 73
e 56 87
e 56 92
e 56 93
e 56 96
e 56 100
e 57 58
e 57 68
e 57 79
e 57 82
e 57 83
e 57 85
e 57 88
e 57 93
e 57 96
e 58 69
e 58 74
e 58 77
e 58 81
e 58 85
e 58 94
e 59 61
e 59 62
e 59 67
e 59 80
e 59 88
e 59 89
e 59 90
e 59 99
e 60 62
e 60 63
e 60 74
e 60 75
e 60 77
e 60 84
e 60 85
e 60 88
e 60 90
e 60 94
e 61 69
e 61 72
e 61 80
e 61 83
e 61 87
e 61 97
e 62 64
e 62 68
e 62 73
e 62 74
e 62 80
e 62 87
e 62 92
e 62 93
e 63 70
e 63 88
e 63 89
e 63 90
e 63 93
e 63 98
e 64 70
e 64 71
e 64 78
e 64 79
e 64 80
e 64 82
e 64 83
e 64 87
e 64 92
e 65 67
e 65 69
e 65 74
e 65 75
e 65 80
e 65 82
e 65 84
e 65 100
e 66 68
e 66 74
e 66 76
e 66 86
e 66 91
e 66 94
e 66 95
e 66 100
e 67 68
e 67 71
e 67 72
e 67 79
e 67 82
e 67 87
e 67 92
e 67 99
e 68 74
e 68 75
e 68 84
e 68 88
e 68 93
e 68 97
e 68 100
e 69 75
e 69 76
e 69 77
e 69 78
e 69 92
e 69 93
e 69 94
e 69 98
e 69 99
e 70 76
e 70 84
e 70 96
e 70 100
e 71 74
e 71 83
e 71 84
e 71 86
e 71 90
e 71 98
e 72 83
e 72 87
e 72 88
e 72 94
e 72 99
e 73 78
e 73 82
e 74 79
e 74 80
e 74 84
e 74 94
e 74 96
e 75 80
e 75 82
e 75 92
e 75 94
e 75 96
e 76 78
e 76 83
e 76 87
e 76 89
e 76 91
e 76 92
e 76 98
e 76 100
e 77 81
e 77 82
e 77 83
e 77 89
e 77 91
e 77 94
e 77 95
e 77 98
e 78 88
e 78 91
e 79 95
e 79 97
e 80 82
e 80 95
e 81 83
e 81 87
e 81 92
e 82 83
e 82 96
e 82 99
e 83 88
e 83 89
e 83 92
e 84 87
e 84 88
e 84 97
e 85 86
e 85 89
e 87 92
e 87 96
e 88 96
e 89 92
e 89 97
e 90 97
e 91 96
e 93 96
e 93 99
e 95 97
e 95 98
e 97 99
e 97 100
e 98 100
